; benchmark generated from python API
(set-info :status unknown)
(declare-datatypes ((RealState 0)) (((RMk1 (rval1 Real)) (RMk2 (rval2 Real)))))
 (assert
 (forall ((|v11:0| Real) )(exists ((|v10:1_st| RealState) (val!2472 Real) )(forall ((|v9:2| Real) )(exists ((|v8:3_st| RealState) (val!2473 Real) )(forall ((|v7:4| Real) )(exists ((|v6:5_st| RealState) (val!2474 Real) )(forall ((|v5:6| Real) )(exists ((|v4:7_st| RealState) (val!2475 Real) )(forall ((|v3:8| Real) )(exists ((|v2:9_st| RealState) (val!2476 Real) )(forall ((|v1:10| Real) )(exists ((|v0:11_st| RealState) (val!2477 Real) )(let ((?x2816 (- 4.0)))
 (let ((?x869 (rval2 |v6:5_st|)))
 (let ((?x3170 (* 10.0 ?x869)))
 (let ((?x2044 (+ (+ (+ (* (- 9.0) (rval2 |v2:9_st|)) (* (- 10.0) ?x869)) ?x3170) (* (- 17.0) ?x869))))
 (let ((?x2342 (rval2 |v10:1_st|)))
 (let ((?x2116 (- 15.0)))
 (let ((?x1541 (* ?x2116 ?x2342)))
 (let (($x1633 (<= (+ (+ (+ ?x1541 (* (- 1.0) ?x2342)) ?x1541) (* 16.0 (rval2 |v4:7_st|))) 20.0)))
 (let ((?x1576 (+ (+ (+ (* ?x2816 (rval2 |v2:9_st|)) (* 14.0 |v11:0|)) (* 7.0 |v9:2|)) (* 12.0 (rval2 |v2:9_st|)))))
 (let ((?x2544 (* 8.0 |v9:2|)))
 (let ((?x2572 (rval2 |v4:7_st|)))
 (let ((?x66 (* 8.0 ?x2572)))
 (let (($x2847 (<= (+ (+ (+ (* 20.0 (rval2 |v2:9_st|)) (* 5.0 ?x869)) ?x66) ?x2544) 12.0)))
 (let ((?x3064 (- 6.0)))
 (let ((?x1161 (* 14.0 |v11:0|)))
 (let ((?x338 (+ (+ (+ (* (- 1.0) |v3:8|) (* 18.0 ?x2342)) (* 13.0 (rval2 |v8:3_st|))) ?x1161)))
 (let ((?x2015 (* 4.0 |v1:10|)))
 (let ((?x2380 (+ (+ (+ (* (- 13.0) |v3:8|) (* 10.0 |v9:2|)) (* 7.0 ?x2572)) ?x2015)))
 (let ((?x1256 (- 2.0)))
 (let ((?x265 (* 18.0 |v1:10|)))
 (let ((?x577 (+ (+ (+ (* (- 11.0) ?x869) (* 12.0 |v11:0|)) (* 11.0 |v9:2|)) ?x265)))
 (let ((?x2096 (rval2 |v8:3_st|)))
 (let ((?x1857 (* 7.0 |v3:8|)))
 (let (($x2641 (<= (+ (+ (+ (* 18.0 (rval2 |v2:9_st|)) (* ?x3064 (rval2 |v0:11_st|))) ?x1857) ?x2096) ?x2116)))
 (let (($x1253 (and (or (and $x2641 (<= ?x577 ?x1256)) (or (<= ?x2380 11.0) (<= ?x338 ?x3064))) (and (or $x2847 (<= ?x1576 19.0)) (or $x1633 (<= ?x2044 ?x2816))))))
 (let ((?x3063 (- 20.0)))
 (let ((?x3104 (- 10.0)))
 (let ((?x2343 (* ?x3104 ?x2342)))
 (let ((?x509 (+ (+ (+ (* 5.0 ?x2342) (* 5.0 |v7:4|)) (* (- 1.0) (rval2 |v2:9_st|))) ?x2343)))
 (let ((?x653 (- 13.0)))
 (let ((?x1639 (* 2.0 |v9:2|)))
 (let ((?x1894 (+ (+ (+ (* ?x2816 ?x869) (* ?x2116 (rval2 |v0:11_st|))) (* 3.0 ?x2572)) ?x1639)))
 (let ((?x1326 (+ (+ (+ ?x3170 (* 13.0 ?x2342)) (* 0.0 (rval2 |v0:11_st|))) (* (- 18.0) (rval2 |v0:11_st|)))))
 (let ((?x928 (rval2 |v0:11_st|)))
 (let ((?x943 (* 0.0 ?x928)))
 (let ((?x704 (+ (+ (+ (* (- 1.0) |v7:4|) (* 6.0 ?x2096)) (* 2.0 ?x2572)) ?x943)))
 (let (($x739 (or (or (<= ?x704 13.0) (<= ?x1326 14.0)) (and (<= ?x1894 ?x653) (<= ?x509 ?x3063)))))
 (let ((?x2709 (- 14.0)))
 (let ((?x635 (* ?x2709 |v11:0|)))
 (let (($x2718 (<= (+ (+ (+ (* (- 1.0) ?x2572) ?x869) (* ?x2116 |v11:0|)) ?x635) 4.0)))
 (let ((?x2025 (+ (+ (+ (* (- 12.0) ?x928) (* (- 16.0) |v9:2|)) (* 7.0 ?x928)) (* ?x1256 ?x928))))
 (let (($x3098 (<= (+ (+ (+ (* 0.0 |v9:2|) (* ?x1256 |v11:0|)) ?x1541) (* 2.0 ?x2096)) 2.0)))
 (let ((?x1884 (- 9.0)))
 (let ((?x1356 (- 16.0)))
 (let ((?x1358 (* ?x1356 |v1:10|)))
 (let ((?x2844 (+ (+ (+ (* 14.0 (rval2 |v2:9_st|)) (* ?x2116 |v7:4|)) (* (- 12.0) ?x869)) ?x1358)))
 (let ((?x2487 (- 7.0)))
 (let ((?x887 (+ (+ (+ (* ?x3063 |v9:2|) (* 15.0 ?x869)) (* 3.0 |v5:6|)) (* (- 18.0) ?x2572))))
 (let ((?x1410 (+ (+ (+ (* (- 8.0) ?x2096) |v9:2|) (* (- 5.0) ?x2572)) (* ?x1256 ?x2572))))
 (let ((?x266 (+ (+ (+ (* ?x2709 ?x869) (* 3.0 |v1:10|)) (* ?x2116 |v11:0|)) (* 14.0 ?x2342))))
 (let (($x2269 (or (or (<= ?x266 16.0) (<= ?x1410 6.0)) (or (<= ?x887 ?x2487) (<= ?x2844 ?x1884)))))
 (let ((?x1543 (* ?x653 |v1:10|)))
 (let ((?x76 (+ (+ (+ (* ?x2116 (rval2 |v2:9_st|)) (* (- 18.0) |v1:10|)) (* 2.0 ?x869)) ?x1543)))
 (let ((?x2785 (* 9.0 |v11:0|)))
 (let ((?x796 (+ (+ (+ (* (- 11.0) ?x2342) (* 4.0 ?x869)) (* (- 3.0) |v11:0|)) ?x2785)))
 (let ((?x1238 (- 19.0)))
 (let ((?x1742 (- 18.0)))
 (let ((?x2975 (* ?x1742 ?x869)))
 (let (($x2583 (<= (+ (+ (+ (* 18.0 ?x2572) (* 18.0 |v3:8|)) (* 16.0 |v7:4|)) ?x2975) ?x1238)))
 (let ((?x1311 (* 3.0 |v1:10|)))
 (let ((?x2757 (+ (+ (+ (* 16.0 (rval2 |v2:9_st|)) (* ?x3064 |v9:2|)) (* ?x1742 |v11:0|)) ?x1311)))
 (let (($x264 (and (or (<= ?x2757 ?x2116) $x2583) (or (<= ?x796 0.0) (<= ?x76 7.0)))))
 (let ((?x1017 (+ (+ (+ (* ?x2816 |v1:10|) (* 11.0 ?x2096)) (* 11.0 |v11:0|)) (* ?x3104 ?x2096))))
 (let ((?x2401 (+ (+ (+ (* 11.0 |v3:8|) (* (- 12.0) ?x2342)) (* (- 1.0) |v11:0|)) ?x2785)))
 (let ((?x2039 (* 2.0 |v1:10|)))
 (let ((?x1574 (+ (+ (+ (* (- 5.0) |v11:0|) (* ?x3063 (rval2 |v2:9_st|))) (* 12.0 |v11:0|)) ?x2039)))
 (let ((?x2179 (- 11.0)))
 (let ((?x340 (* ?x2179 ?x928)))
 (let (($x1016 (<= (+ (+ (+ (* 5.0 |v11:0|) (* ?x1884 ?x2342)) (* 10.0 ?x2096)) ?x340) 11.0)))
 (let (($x1693 (or $x1016 (<= (+ (+ (+ ?x1541 (* 8.0 ?x2342)) ?x2015) (* ?x3064 ?x2342)) 1.0))))
 (let ((?x1591 (+ (+ (+ (* (- 12.0) |v1:10|) (* (- 17.0) |v11:0|)) ?x1543) (* ?x1256 ?x869))))
 (let (($x721 (<= (+ (+ (+ ?x2015 ?x635) (* (- 17.0) |v9:2|)) (* ?x2116 (rval2 |v2:9_st|))) ?x2487)))
 (let (($x2233 (or (and (and $x721 (<= ?x1591 12.0)) $x1693) (or (<= ?x1574 ?x1256) (and (<= ?x2401 20.0) (<= ?x1017 ?x1742))))))
 (let (($x1023 (or (or $x2233 (and $x264 $x2269)) (and (or (or (and $x3098 (<= ?x2025 16.0)) $x2718) $x739) $x1253))))
 (let ((?x260 (+ (+ (+ (* 16.0 |v7:4|) (* ?x2487 |v5:6|)) (* 17.0 ?x2342)) (* 19.0 ?x869))))
 (let (($x2023 (<= (+ (+ (+ ?x1543 (* ?x2487 ?x928)) ?x3170) (* (- 3.0) ?x2572)) 16.0)))
 (let ((?x1663 (- 3.0)))
 (let ((?x3003 (+ (+ (+ (* ?x1663 |v7:4|) (* ?x1238 ?x2096)) (* ?x1356 ?x869)) (* (- 12.0) ?x2572))))
 (let ((?x380 (* 4.0 |v5:6|)))
 (let (($x1719 (<= (+ (+ (+ (* ?x2116 |v5:6|) (* 13.0 |v1:10|)) (* 14.0 |v9:2|)) ?x380) 16.0)))
 (let ((?x2261 (+ (+ (+ (* ?x2709 (rval2 |v2:9_st|)) (* 16.0 ?x2096)) (* 10.0 |v11:0|)) (* ?x2179 |v5:6|))))
 (let ((?x1904 (- 5.0)))
 (let ((?x1866 (* ?x1256 ?x2096)))
 (let ((?x3012 (- 8.0)))
 (let ((?x2702 (* ?x3012 |v11:0|)))
 (let ((?x1527 (+ (+ (+ (* 13.0 ?x2096) (* 20.0 ?x2342)) (* ?x2709 |v9:2|)) (* ?x3064 |v11:0|))))
 (let (($x2529 (or (<= ?x1527 ?x2487) (<= (+ (+ (+ ?x2702 (* (- 1.0) ?x2572)) ?x2702) ?x1866) ?x1904))))
 (let (($x1390 (and (or $x2529 (and (<= ?x2261 16.0) $x1719)) (and (or (<= ?x3003 ?x1663) $x2023) (<= ?x260 ?x1742)))))
 (let (($x1490 (<= (+ (+ (+ (* 5.0 |v7:4|) (* 17.0 |v3:8|)) ?x265) (* ?x1256 |v11:0|)) ?x1663)))
 (let ((?x2976 (* ?x3012 |v5:6|)))
 (let ((?x2777 (+ (+ (+ (* (- 17.0) ?x2342) (* 5.0 |v11:0|)) (* 13.0 ?x869)) ?x2976)))
 (let ((?x2948 (+ (+ (+ (* 15.0 |v1:10|) (* ?x3063 ?x928)) (* 11.0 |v7:4|)) (* ?x1884 |v11:0|))))
 (let (($x330 (<= (+ (+ (+ (* (- 12.0) ?x2342) ?x928) (* (- 17.0) |v1:10|)) ?x3170) 16.0)))
 (let ((?x2430 (+ (+ (+ (* ?x2487 ?x928) (* ?x2179 ?x2572)) (* ?x1256 |v7:4|)) (* 6.0 ?x2572))))
 (let ((?x782 (- 12.0)))
 (let ((?x201 (+ (+ (+ (* 6.0 |v9:2|) (* ?x3064 ?x2096)) (* 12.0 ?x928)) (* 19.0 |v9:2|))))
 (let (($x1065 (<= (+ (+ (+ (* 18.0 |v7:4|) ?x1358) (* ?x3012 ?x2096)) (* ?x653 ?x869)) 13.0)))
 (let ((?x1271 (+ (+ (+ (* ?x1742 |v1:10|) (* ?x1356 |v5:6|)) (* ?x1256 |v3:8|)) (* ?x2816 |v11:0|))))
 (let (($x2681 (or (and (or (<= ?x1271 ?x1238) $x1065) (or (<= ?x201 ?x782) (<= ?x2430 10.0))) (or (and $x330 (<= ?x2948 6.0)) (or (<= ?x2777 ?x2116) $x1490)))))
 (let ((?x2835 (+ (+ (+ ?x1866 (* 13.0 (rval2 |v2:9_st|))) (* 12.0 |v9:2|)) (* ?x3063 |v3:8|))))
 (let (($x2558 (and (<= ?x2835 ?x3063) (<= (+ (+ (+ ?x380 (* 10.0 |v7:4|)) ?x340) (* ?x2709 ?x2572)) 15.0))))
 (let ((?x3147 (* ?x3064 ?x928)))
 (let (($x339 (<= (+ (+ (+ (* 19.0 |v5:6|) (* (- 1.0) |v1:10|)) (* ?x1742 |v1:10|)) ?x3147) 13.0)))
 (let ((?x55 (* ?x1884 |v7:4|)))
 (let (($x615 (<= (+ (+ (+ (* 2.0 |v5:6|) (* ?x2487 ?x2572)) (* (- 17.0) |v7:4|)) ?x55) 4.0)))
 (let (($x1890 (<= (+ (+ (+ ?x2975 (* 14.0 |v3:8|)) (* ?x782 |v3:8|)) (* ?x2709 |v9:2|)) 19.0)))
 (let ((?x1902 (* 9.0 |v1:10|)))
 (let (($x3088 (<= (+ (+ (+ (* ?x1663 |v3:8|) (* 19.0 ?x928)) (* 8.0 ?x928)) ?x1902) ?x782)))
 (let ((?x2317 (* 17.0 ?x2342)))
 (let (($x1049 (<= (+ (+ (+ (* 15.0 ?x2096) (* ?x2487 ?x869)) (* 16.0 |v11:0|)) ?x2317) ?x1904)))
 (let (($x618 (<= (+ (+ (+ (* ?x1663 |v1:10|) (* 13.0 ?x2572)) ?x66) (* ?x782 ?x869)) ?x3012)))
 (let ((?x517 (- 1.0)))
 (let ((?x1697 (rval2 |v2:9_st|)))
 (let ((?x1313 (* 7.0 ?x1697)))
 (let (($x1823 (<= (+ (+ (+ (* 12.0 |v11:0|) (* ?x2116 ?x2572)) (* (- 17.0) ?x2572)) ?x1313) ?x517)))
 (let (($x2031 (or (<= (+ (+ (+ (* ?x1663 ?x928) ?x265) (* ?x3063 |v11:0|)) ?x2317) 9.0) $x1823)))
 (let ((?x1699 (+ (+ (+ (* 5.0 |v5:6|) (* 18.0 ?x1697)) (* 4.0 |v11:0|)) (* ?x3104 |v11:0|))))
 (let (($x286 (or (<= (+ (+ (+ ?x55 (* 17.0 |v9:2|)) (* 18.0 ?x2572)) ?x2342) 13.0) (<= ?x1699 18.0))))
 (let (($x155 (<= (+ (+ (+ (* ?x1742 |v9:2|) (* 12.0 |v5:6|)) (* ?x517 ?x1697)) ?x1857) ?x653)))
 (let ((?x1785 (+ (+ (+ (* 8.0 |v7:4|) (* 4.0 |v9:2|)) (* 10.0 |v9:2|)) (* ?x1238 ?x1697))))
 (let (($x2119 (<= (+ (+ (+ ?x1902 (* ?x1356 |v3:8|)) (* 10.0 ?x928)) (* 10.0 |v11:0|)) ?x782)))
 (let (($x1835 (<= (+ (+ (+ (* 15.0 |v7:4|) (* ?x1663 ?x869)) (* ?x1663 ?x928)) ?x2343) ?x1256)))
 (let (($x1677 (and (or (and (and $x1835 $x2119) (or (<= ?x1785 ?x1884) $x155)) (or $x286 $x2031)) (or (and (or $x618 $x1049) (or $x3088 $x1890)) (and (and $x615 $x339) $x2558)))))
 (let (($x1423 (not (= |v0:11_st| (RMk1 val!2477)))))
 (let (($x937 (not (= |v2:9_st| (RMk1 val!2476)))))
 (let (($x1277 (not (= |v4:7_st| (RMk1 val!2475)))))
 (let (($x1151 (not (= |v6:5_st| (RMk1 val!2474)))))
 (let (($x1011 (not (= |v8:3_st| (RMk1 val!2473)))))
 (let (($x439 (not (= |v10:1_st| (RMk1 val!2472)))))
 (and $x439 $x1011 $x1151 $x1277 $x937 $x1423 (and (or $x1677 (and $x2681 $x1390)) $x1023))))))))))))))))))))))))))))))))))))))))))))))))))))))))))))))))))))))))))))))))))))))))))))))))))))))))))))))))))))))))))))))))))))
 )
 )
 )
 )
 )
 )
 )
 )
 )
 )
 )
 )
(check-sat)
